p cnf 46 75 
1 -6 -7 -8 -9 0
1 -6 -7 -8 9 0
1 -6 -7 8 -9 0
1 -6 -7 8 9 0
1 -6 7 -8 -9 0
1 -6 7 -8 9 0
1 -6 7 8 -9 0
1 -6 7 8 9 0
1 6 -7 -8 -9 0
1 6 -7 -8 9 0
1 6 -7 8 -9 0
1 6 -7 8 9 0
1 6 7 -8 -9 0
1 6 7 -8 9 0
1 6 7 8 -9 0
1 6 7 8 9 0
2 -3 -10 -11 -12 0
2 -3 -10 -11 12 0
2 -3 -10 11 -12 0
2 -3 -10 11 12 0
2 -3 10 -11 -12 0
2 -3 10 -11 12 0
2 -3 10 11 -12 0
2 -3 10 11 12 0
-3 2 1 -13 -14 0
-3 2 1 -13 14 0
-3 2 1 13 -14 0
-3 2 1 13 14 0
4 -3 2 1 -15 0
4 -3 2 1 15 0
-5 -4 3 2 1 0
5 -5 16 -20 -21 0
5 -5 16 -20 21 0
5 -5 16 20 -21 0
5 -5 16 20 21 0
-16 4 17 -22 -23 0
-16 4 17 -22 23 0
-16 4 17 22 -23 0
-16 4 17 22 23 0
-17 3 18 -24 -25 0
-17 3 18 -24 25 0
-17 3 18 24 -25 0
-17 3 18 24 25 0
-18 -3 19 -26 -27 0
-18 -3 19 -26 27 0
-18 -3 19 26 -27 0
-18 -3 19 26 27 0
-19 2 1 -28 -29 0
-19 2 1 -28 29 0
-19 2 1 28 -29 0
-19 2 1 28 29 0
4 3 30 -35 -36 0
4 3 30 -35 36 0
4 3 30 35 -36 0
4 3 30 35 36 0
-30 -3 31 -37 -38 0
-30 -3 31 -37 38 0
-30 -3 31 37 -38 0
-30 -3 31 37 38 0
-31 2 32 -39 -40 0
-31 2 32 -39 40 0
-31 2 32 39 -40 0
-31 2 32 39 40 0
-32 1 33 -41 -42 0
-32 1 33 -41 42 0
-32 1 33 41 -42 0
-32 1 33 41 42 0
-33 5 34 -43 -44 0
-33 5 34 -43 44 0
-33 5 34 43 -44 0
-33 5 34 43 44 0
-34 -4 -2 -45 -46 0
-34 -4 -2 -45 46 0
-34 -4 -2 45 -46 0
-34 -4 -2 45 46 0
